c Projet Norinori
p cnf 26 6
c
c
1 2 3 0
2 3 4 0
3 4 1 0
4 1 2 0
-1 -2 -3 0
-1 -2 -4 0
-1 -3 -4 0
-2 -3 -4 0
5 0
6 0
-1 -2 -3 0
2 3 -1 0
-2 -1 -4 0
1 4 -2 0
-3 -1 -4 0
-3 -1 -5 0
-3 -4 -5 0
1 4 5 -3 0
-4 -2 -3 0
-4 -2 -6 0
-4 -3 -6 0
2 3 6 -4 0
-5 -3 -6 0
3 6 -5 0
-6 -4 -5 0
4 5 -6 0
